10327.0
0 1 0 0 0 0 0 0 0 1 1 0 0 1 0 1 1 1 0 0 

1 4 11 12 15 28 34 37 38 48 







19 24 44 49 
2 3 8 13 17 35 40 47 


7 14 23 30 32 39 45 

5 10 16 20 21 22 31 42 46 
0 26 33 41 43 
6 9 18 25 27 29 36 


